JulietBench/Juliet_Based_Patch_Bench/qemu/CWE-189-Numeric-Errors/CVE_2016_2538_fe3c546c5ff2a6210f9a4d8561cc64051ca8603e/cve2/Resultusb_net_handle_dataoutNEQ.smt2
; benchmark generated from python API
(set-info :status unknown)
(declare-fun R () (_ BitVec 32))
(declare-fun rdi () (_ BitVec 64))
(declare-fun rsi () (_ BitVec 64))
(declare-fun rdx () (_ BitVec 64))
(assert
 (let (($x104 (= (_ bv0 32) R)))
 (let ((?x6 ((_ extract 31 0) rdi)))
 (let (($x11 (bvult ?x6 (_ bv30 32))))
 (let (($x110 (and $x11 $x104)))
 (let (($x108 (= (_ bv10 32) R)))
 (let (($x93 (bvuge ?x6 (_ bv30 32))))
 (let (($x109 (and $x93 $x108)))
 (let (($x111 (or $x109 $x110)))
 (let (($x114 (not $x111)))
 (let ((?x8 ((_ extract 31 0) rsi)))
 (let ((?x10 ((_ extract 31 0) rdx)))
 (let ((?x14 (bvadd ?x10 ?x8)))
 (let (($x19 (bvult ?x6 ?x14)))
 (let (($x105 (and $x19 $x104)))
 (let (($x102 (= R ?x8)))
 (let (($x64 (bvuge ?x6 ?x14)))
 (let (($x103 (and $x64 $x102)))
 (let (($x106 (or $x103 $x105)))
 (let (($x113 (not $x106)))
 (let (($x115 (and $x113 $x114)))
 (let (($x112 (and $x106 $x111)))
 (let (($x116 (or $x112 $x115)))
 (not $x116))))))))))))))))))))))))
(check-sat)
